results_rootrelaxation/bin012_070_042.srr.sol
solution status: optimal solution found
objective value:                     8.09346733668342
_var678_                            0.160804020100503 	(obj:1)
_var746_                            0.111557788944724 	(obj:2)
_var748_                            0.215075376884422 	(obj:0)
_var752_                            0.409045226130653 	(obj:1)
_var757_                            0.241206030150754 	(obj:1)
_var768_                           0.0613065326633167 	(obj:1)
_var778_                          0.00201005025125661 	(obj:0)
_var787_                            0.633165829145729 	(obj:0)
_var791_                            0.233165829145729 	(obj:1)
_var793_                          0.00100502512562772 	(obj:1)
_var795_                             0.32462311557789 	(obj:0)
_var797_                            0.406030150753769 	(obj:1)
_var798_                            0.149748743718593 	(obj:2)
_var800_                            0.264321608040201 	(obj:1)
_var801_                            0.179899497487438 	(obj:1)
_var810_                            0.548743718592965 	(obj:0)
_var811_                           0.0371859296482414 	(obj:1)
_var819_                           0.0733668341708543 	(obj:0)
_var823_                             0.10251256281407 	(obj:0)
_var825_                             0.10251256281407 	(obj:1)
_var828_                           0.0140703517587939 	(obj:0)
_var830_                           0.0462311557788947 	(obj:1)
_var833_                            0.404020100502512 	(obj:0)
_var834_                           0.0231155778894472 	(obj:1)
_var835_                            0.139698492462311 	(obj:1)
_var839_                            0.365829145728643 	(obj:0)
_var841_                            0.154773869346734 	(obj:0)
_var845_                            0.142713567839196 	(obj:1)
_var848_                           0.0793969849246237 	(obj:1)
_var853_                            0.127638190954774 	(obj:1)
_var854_                            0.072361809045226 	(obj:1)
_var857_                            0.551758793969849 	(obj:1)
_var858_                           0.0311557788944727 	(obj:1)
_var860_                           0.0361809045226128 	(obj:1)
_var861_                            0.183919597989949 	(obj:1)
_var866_                           0.0603015075376883 	(obj:0)
_var867_                            0.137688442211055 	(obj:1)
_var869_                            0.308542713567839 	(obj:1)
_var871_                            0.450251256281407 	(obj:1)
_var872_                            0.072361809045226 	(obj:1)
_var876_                            0.142713567839196 	(obj:1)
_var877_                           0.0884422110552764 	(obj:1)
_var878_                           0.0753768844221105 	(obj:1)
_var880_                            0.177889447236181 	(obj:1)
_var881_                            0.244221105527638 	(obj:1)
_var882_                           0.0391959798994975 	(obj:1)
_var885_                           0.0894472361809048 	(obj:1)
_var886_                           0.0753768844221105 	(obj:1)
_var888_                            0.072361809045226 	(obj:1)
_var889_                            0.269346733668342 	(obj:0)
_var891_                            0.319597989949748 	(obj:1)
_var894_                             0.25427135678392 	(obj:1)
_var895_                           0.0130653266331655 	(obj:1)
_var897_                             0.22713567839196 	(obj:1)
_var902_                            0.305527638190955 	(obj:1)
_var903_                            0.215075376884422 	(obj:1)
_var904_                            0.143718592964824 	(obj:1)
_var905_                           0.0492462311557789 	(obj:1)
_var906_                            0.204020100502512 	(obj:1)
_var909_                           0.0753768844221105 	(obj:1)
_var910_                            0.148743718592965 	(obj:1)
_var911_                           0.0391959798994972 	(obj:1)
_var912_                           0.0572864321608045 	(obj:1)
_var913_                           0.0140703517587944 	(obj:1)
